proyfinal/src/viki/013/experimentInOfficeAgust.take6.output/94505839-c10d-487b-a2b3-cf73dfd3611a.als.dat
{'cnf.clauses': '118081',
 'cnf.totvars': '69608',
 'conflict literals': '19',
 'conflicts': '12',
 'decisions': '2443',
 'memused.mb': '15.60',
 'outcome': 'UNSAT',
 'propagations': '21985',
 'restarts': '1',
 'solver.msecs': 30,
 'task.msecs': 177}
