proyfinal/src/viki/013/experimentInOfficeAgust.take6.output/94505839-c10d-487b-a2b3-cf73dfd3611a.als.out
Reading from standard input... Use '--help' for help.
============================[ Problem Statistics ]=============================
|                                                                             |
|  Number of variables:         69608                                         |
|  Number of clauses:          118081                                         |
|  Parse time:                   0.02 s                                       |
|                                                                             |
============================[ Search Statistics ]==============================
| Conflicts |          ORIGINAL         |          LEARNT          | Progress |
|           |    Vars  Clauses Literals |    Limit  Clauses Lit/Cl |          |
===============================================================================
===============================================================================
restarts              : 1
conflicts             : 12             (390 /sec)
decisions             : 2443           (0.00 % random) (79377 /sec)
propagations          : 21985          (714332 /sec)
conflict literals     : 19             (0.00 % deleted)
Memory used           : 15.60 MB
CPU time              : 0.030777 s

UNSATISFIABLE
